benchmarks_vrp/CMT5/no_cluster/CMT5_6.vrp
NAME: CMT5_6
TYPE: CVRP
COMMENT: 1291.29 - Cluster Nr.6
DIMENSION: 11
CAPACITY: 200
EDGE_WEIGHT_TYPE: EUC_2D
NODE_COORD_TYPE: TWOD_COORDS
NODE_COORD_SECTION: 
3 40 25
2 37 31
10 45 30
1 45 35
4 48 28
5 35 35
6 45 35
8 36 26
7 36 26
11 40 30
9 43 26
DEPOT_SECTION: 
5
-1
DEMAND_SECTION: 
5 0
8 26
2 14
3 9
10 17
4 18
6 30
11 21
7 18
1 15
9 22
EOF
