benchmarks_vrp/CMT5/no_cluster/CMT5_6.tour
NAME: CMT5_6 solution
TYPE: TOUR
TOUR_SECTION:
5 2 8 7 3 9 4 10 6 1 11 -1
-1
EOF